NAME: I8240-n26-k3
COMMENT : (Fake et al, No of trucks: 3, Optimal value: )
TYPE : CVRP
DIMENSION : 26
EDGE_WEIGHT_TYPE : EUC_2D
CAPACITY : 31
NODE_COORD_SECTION
1 881 865
2 554 717
3 337 86
4 539 858
5 237 36
6 752 936
7 487 295
8 546 263
9 773 888
10 402 265
11 220 994
12 979 581
13 553 426
14 867 598
15 444 171
16 398 292
17 335 436
18 780 841
19 268 659
20 7 919
21 854 669
22 361 766
23 576 389
24 825 839
25 135 228
26 125 406
DEMAND_SECTION
1 0
2 3
3 5
4 4
5 2
6 5
7 2
8 5
9 2
10 3
11 1
12 1
13 1
14 5
15 5
16 5
17 5
18 3
19 5
20 3
21 2
22 4
23 4
24 3
25 4
26 1
DEPOT_SECTION
 1
 -1
 EOF 